c Created with the Wolfram Language : www.wolfram.com
c 
p edge 80 647
e 2 3
e 3 4
e 1 6
e 4 6
e 1 7
e 4 7
e 6 7
e 1 8
e 3 9
e 1 10
e 2 10
e 1 11
e 4 11
e 8 11
e 9 11
e 10 11
e 3 12
e 5 12
e 6 12
e 4 14
e 5 14
e 13 14
e 3 15
e 4 15
e 5 15
e 7 15
e 12 15
e 14 15
e 1 16
e 9 16
e 10 16
e 12 16
e 6 17
e 9 17
e 13 17
e 6 18
e 10 18
e 15 18
e 2 19
e 3 19
e 15 19
e 17 19
e 1 20
e 3 20
e 19 20
e 1 21
e 4 21
e 5 21
e 7 21
e 10 21
e 11 21
e 17 21
e 2 22
e 10 22
e 13 22
e 15 22
e 16 23
e 18 23
e 8 24
e 9 24
e 9 25
e 8 26
e 14 26
e 5 27
e 12 27
e 14 27
e 15 27
e 22 27
e 5 28
e 7 28
e 11 28
e 15 28
e 18 28
e 20 28
e 21 28
e 24 28
e 25 28
e 27 28
e 2 29
e 3 29
e 5 29
e 17 29
e 3 30
e 4 30
e 5 30
e 22 30
e 23 30
e 25 30
e 27 30
e 28 30
e 2 31
e 4 31
e 6 31
e 15 31
e 1 32
e 6 32
e 7 32
e 9 32
e 10 32
e 11 32
e 12 32
e 20 32
e 21 32
e 23 32
e 29 32
e 12 33
e 13 33
e 15 33
e 16 33
e 20 33
e 21 33
e 23 33
e 32 33
e 4 34
e 5 34
e 12 34
e 18 34
e 19 34
e 25 34
e 29 34
e 30 34
e 1 35
e 12 35
e 13 35
e 15 35
e 17 35
e 18 35
e 23 35
e 26 35
e 31 35
e 32 35
e 33 35
e 2 36
e 16 36
e 25 36
e 29 36
e 34 36
e 5 37
e 11 37
e 13 37
e 23 37
e 26 37
e 31 37
e 35 37
e 4 38
e 8 38
e 9 38
e 11 38
e 16 38
e 20 38
e 37 38
e 1 39
e 2 39
e 4 39
e 12 39
e 19 39
e 27 39
e 31 39
e 36 39
e 2 40
e 3 40
e 6 40
e 10 40
e 12 40
e 14 40
e 18 40
e 21 40
e 22 40
e 30 40
e 13 41
e 21 41
e 29 41
e 35 41
e 38 41
e 39 41
e 40 41
e 3 42
e 6 42
e 10 42
e 12 42
e 15 42
e 20 42
e 22 42
e 24 42
e 34 42
e 36 42
e 41 42
e 4 43
e 6 43
e 10 43
e 23 43
e 24 43
e 31 43
e 1 44
e 2 44
e 12 44
e 14 44
e 18 44
e 27 44
e 28 44
e 30 44
e 38 44
e 39 44
e 11 45
e 19 45
e 21 45
e 25 45
e 29 45
e 38 45
e 6 46
e 8 46
e 9 46
e 13 46
e 14 46
e 15 46
e 24 46
e 30 46
e 31 46
e 33 46
e 43 46
e 1 47
e 4 47
e 9 47
e 15 47
e 19 47
e 20 47
e 25 47
e 45 47
e 4 48
e 6 48
e 7 48
e 10 48
e 15 48
e 34 48
e 46 48
e 47 48
e 4 49
e 10 49
e 12 49
e 14 49
e 16 49
e 22 49
e 23 49
e 31 49
e 37 49
e 43 49
e 15 50
e 19 50
e 20 50
e 23 50
e 27 50
e 30 50
e 40 50
e 47 50
e 3 51
e 5 51
e 7 51
e 16 51
e 17 51
e 20 51
e 21 51
e 24 51
e 30 51
e 33 51
e 34 51
e 35 51
e 36 51
e 41 51
e 5 52
e 8 52
e 11 52
e 12 52
e 17 52
e 21 52
e 22 52
e 35 52
e 37 52
e 42 52
e 48 52
e 51 52
e 1 53
e 5 53
e 6 53
e 8 53
e 13 53
e 14 53
e 15 53
e 20 53
e 25 53
e 42 53
e 1 54
e 2 54
e 5 54
e 7 54
e 8 54
e 15 54
e 18 54
e 19 54
e 22 54
e 28 54
e 31 54
e 39 54
e 42 54
e 45 54
e 51 54
e 52 54
e 2 55
e 6 55
e 7 55
e 11 55
e 28 55
e 40 55
e 43 55
e 9 56
e 11 56
e 17 56
e 24 56
e 28 56
e 33 56
e 46 56
e 47 56
e 2 57
e 19 57
e 20 57
e 21 57
e 23 57
e 25 57
e 28 57
e 29 57
e 36 57
e 37 57
e 40 57
e 53 57
e 54 57
e 56 57
e 5 58
e 6 58
e 13 58
e 18 58
e 24 58
e 29 58
e 33 58
e 37 58
e 41 58
e 45 58
e 47 58
e 49 58
e 11 59
e 13 59
e 21 59
e 22 59
e 30 59
e 37 59
e 40 59
e 42 59
e 46 59
e 51 59
e 55 59
e 57 59
e 5 60
e 8 60
e 13 60
e 20 60
e 21 60
e 22 60
e 24 60
e 33 60
e 35 60
e 44 60
e 47 60
e 50 60
e 53 60
e 24 61
e 27 61
e 28 61
e 32 61
e 35 61
e 36 61
e 39 61
e 40 61
e 47 61
e 48 61
e 49 61
e 56 61
e 60 61
e 7 62
e 16 62
e 17 62
e 18 62
e 19 62
e 21 62
e 37 62
e 39 62
e 42 62
e 44 62
e 46 62
e 51 62
e 7 63
e 14 63
e 15 63
e 18 63
e 24 63
e 25 63
e 26 63
e 27 63
e 28 63
e 30 63
e 34 63
e 38 63
e 39 63
e 50 63
e 1 64
e 7 64
e 10 64
e 15 64
e 21 64
e 26 64
e 40 64
e 45 64
e 48 64
e 50 64
e 54 64
e 57 64
e 58 64
e 61 64
e 7 65
e 15 65
e 17 65
e 18 65
e 20 65
e 21 65
e 32 65
e 38 65
e 43 65
e 49 65
e 50 65
e 51 65
e 59 65
e 63 65
e 18 66
e 20 66
e 24 66
e 25 66
e 26 66
e 33 66
e 40 66
e 54 66
e 65 66
e 4 67
e 6 67
e 10 67
e 13 67
e 19 67
e 27 67
e 48 67
e 52 67
e 65 67
e 4 68
e 16 68
e 25 68
e 26 68
e 29 68
e 42 68
e 46 68
e 57 68
e 61 68
e 2 69
e 7 69
e 16 69
e 17 69
e 19 69
e 27 69
e 30 69
e 33 69
e 35 69
e 37 69
e 39 69
e 41 69
e 45 69
e 52 69
e 55 69
e 7 70
e 14 70
e 17 70
e 18 70
e 21 70
e 36 70
e 42 70
e 51 70
e 3 71
e 5 71
e 8 71
e 17 71
e 21 71
e 23 71
e 31 71
e 53 71
e 69 71
e 70 71
e 7 72
e 9 72
e 15 72
e 38 72
e 41 72
e 47 72
e 51 72
e 53 72
e 56 72
e 57 72
e 63 72
e 65 72
e 69 72
e 70 72
e 71 72
e 3 73
e 9 73
e 10 73
e 15 73
e 16 73
e 30 73
e 31 73
e 35 73
e 55 73
e 56 73
e 3 74
e 7 74
e 11 74
e 16 74
e 18 74
e 21 74
e 22 74
e 29 74
e 32 74
e 35 74
e 36 74
e 42 74
e 43 74
e 45 74
e 47 74
e 48 74
e 49 74
e 51 74
e 63 74
e 65 74
e 69 74
e 71 74
e 9 75
e 11 75
e 17 75
e 18 75
e 27 75
e 29 75
e 32 75
e 37 75
e 40 75
e 45 75
e 47 75
e 50 75
e 56 75
e 67 75
e 1 76
e 2 76
e 4 76
e 10 76
e 11 76
e 20 76
e 34 76
e 38 76
e 42 76
e 47 76
e 49 76
e 55 76
e 56 76
e 1 77
e 4 77
e 7 77
e 9 77
e 13 77
e 14 77
e 19 77
e 21 77
e 26 77
e 28 77
e 30 77
e 32 77
e 36 77
e 43 77
e 44 77
e 54 77
e 59 77
e 71 77
e 73 77
e 76 77
e 1 78
e 4 78
e 8 78
e 9 78
e 11 78
e 18 78
e 29 78
e 38 78
e 39 78
e 52 78
e 53 78
e 63 78
e 4 79
e 16 79
e 18 79
e 25 79
e 30 79
e 33 79
e 50 79
e 51 79
e 52 79
e 54 79
e 56 79
e 60 79
e 72 79
e 74 79
e 78 79
e 4 80
e 6 80
e 8 80
e 10 80
e 15 80
e 16 80
e 18 80
e 19 80
e 25 80
e 29 80
e 31 80
e 32 80
e 37 80
e 38 80
e 39 80
e 40 80
e 41 80
e 46 80
e 47 80
e 49 80
e 51 80
e 52 80
e 54 80
e 56 80
e 61 80
e 75 80
e 76 80
